language ESSENCE' 1.0

letting fixed be 
[
    [0,7,2,0,8,0,6,4,0],
    [0,9,6,7,0,0,8,0,0],
    [0,0,8,6,0,0,0,0,1],
    [0,0,0,3,0,0,0,8,4],
    [6,8,1,0,0,0,0,0,0],
    [0,0,4,0,5,8,0,6,0],
    [2,1,0,8,3,9,4,0,6],
    [8,4,0,2,0,0,0,1,3],
    [0,6,3,0,0,1,0,0,8]
]